Cu                                      
   1.00000000000000     
     7.2724630150863918   -0.0000011706751656    0.0000000000000000
    -0.0000011466979060    7.2725965128007264    0.0000000000000000
     0.0000000000000000    0.0000000000000000    7.2726019137326583
  32
Direct
  0.2500533132717342  0.2500000028612485  0.0000000000000000
  0.7500296646563668  0.2499999972687613  0.0000000000000000
  0.2500332570841969  0.7499999967034899  0.0000000000000000
  0.7500447987622726  0.7500000027950872  0.0000000000000000
  0.2500332493838028  0.2500000008631761  0.5000000000000000
  0.7500448069405203  0.2499999954242795  0.5000000000000000
  0.2500322118448547  0.7499999990180787  0.5000000000000000
  0.7500365199621758  0.7500000049154557  0.5000000000000000
  0.2500391978634457  0.0000000459078248  0.2499999584304832
  0.7500388167216002  0.9999999515439520  0.2500000394623447
  0.2500391925502397  0.4999999539895114  0.2499999562045272
  0.7500388219099349  0.5000000483879822  0.2500000372130393
  0.2500391978634457  0.0000000459078248  0.7500000415695168
  0.7500388167216002  0.9999999515439520  0.7499999605376552
  0.2500391925502397  0.4999999539895114  0.7500000437954729
  0.7500388219099349  0.5000000483879822  0.7499999627869607
  0.0000409396727110  0.2500000017501753  0.2499934528053094
  0.5000410316592326  0.2499999963507401  0.2500065626894309
  0.0000363369974461  0.7499999981507876  0.2499981712326709
  0.5000362566294383  0.7500000039505038  0.2500018288023345
  0.0000409396727110  0.2500000017501753  0.7500065471946905
  0.5000410316592326  0.2499999963507401  0.7499934373105690
  0.0000363369974461  0.7499999981507876  0.7500018287673290
  0.5000362566294383  0.7500000039505038  0.7499981711976654
  0.0000409306723733  0.0000065484047356  0.0000000000000000
  0.5000410421636033  0.9999934288047130  0.0000000000000000
  0.0000409361116150  0.4999934518068845  0.0000000000000000
  0.5000410362799750  0.5000065711931936  0.0000000000000000
  0.0000363411674214  0.0000018282023204  0.5000000000000000
  0.5000362526584108  0.9999981644482658  0.5000000000000000
  0.0000363465835248  0.4999981710626618  0.5000000000000000
  0.5000362464237298  0.5000018361646947  0.5000000000000000
 
  0.00000000E+00  0.00000000E+00  0.00000000E+00
  0.00000000E+00  0.00000000E+00  0.00000000E+00
  0.00000000E+00  0.00000000E+00  0.00000000E+00
  0.00000000E+00  0.00000000E+00  0.00000000E+00
  0.00000000E+00  0.00000000E+00  0.00000000E+00
  0.00000000E+00  0.00000000E+00  0.00000000E+00
  0.00000000E+00  0.00000000E+00  0.00000000E+00
  0.00000000E+00  0.00000000E+00  0.00000000E+00
  0.00000000E+00  0.00000000E+00  0.00000000E+00
  0.00000000E+00  0.00000000E+00  0.00000000E+00
  0.00000000E+00  0.00000000E+00  0.00000000E+00
  0.00000000E+00  0.00000000E+00  0.00000000E+00
  0.00000000E+00  0.00000000E+00  0.00000000E+00
  0.00000000E+00  0.00000000E+00  0.00000000E+00
  0.00000000E+00  0.00000000E+00  0.00000000E+00
  0.00000000E+00  0.00000000E+00  0.00000000E+00
  0.00000000E+00  0.00000000E+00  0.00000000E+00
  0.00000000E+00  0.00000000E+00  0.00000000E+00
  0.00000000E+00  0.00000000E+00  0.00000000E+00
  0.00000000E+00  0.00000000E+00  0.00000000E+00
  0.00000000E+00  0.00000000E+00  0.00000000E+00
  0.00000000E+00  0.00000000E+00  0.00000000E+00
  0.00000000E+00  0.00000000E+00  0.00000000E+00
  0.00000000E+00  0.00000000E+00  0.00000000E+00
  0.00000000E+00  0.00000000E+00  0.00000000E+00
  0.00000000E+00  0.00000000E+00  0.00000000E+00
  0.00000000E+00  0.00000000E+00  0.00000000E+00
  0.00000000E+00  0.00000000E+00  0.00000000E+00
  0.00000000E+00  0.00000000E+00  0.00000000E+00
  0.00000000E+00  0.00000000E+00  0.00000000E+00
  0.00000000E+00  0.00000000E+00  0.00000000E+00
  0.00000000E+00  0.00000000E+00  0.00000000E+00
