Au                                      
   1.03000000000000     
     4.1734614388124864    0.0000000000000000    0.0000000000000000
     0.0000000000000000    4.1734614388124864    0.0000000000000000
     0.0000000000000000    0.0000000000000000    4.1734614388124864
   4
Direct
  0.0000000000000000  0.0000000000000000  0.0000000000000000
  0.5000000000000000  0.5000000000000000  0.0000000000000000
  0.5000000000000000  0.0000000000000000  0.5000000000000000
  0.0000000000000000  0.5000000000000000  0.5000000000000000
 
  0.00000000E+00  0.00000000E+00  0.00000000E+00
  0.00000000E+00  0.00000000E+00  0.00000000E+00
  0.00000000E+00  0.00000000E+00  0.00000000E+00
  0.00000000E+00  0.00000000E+00  0.00000000E+00
