Automatic mesh
0
Gamma
12 12 12
0. 0. 0.
