No title
    1.0
            8.58540881 0.00000000 0.00000000 
            0.00000016 8.58540881 0.00000000 
            0.00000016 0.00000016 8.58540881 
  32
Direct
        0.75000000 0.75000000 0.50000000
        0.75000000 0.75000000 0.00000000
        0.75000000 0.00000000 0.25000000
        0.75000000 0.25000000 0.50000000
        0.00000000 0.75000000 0.25000000
        0.00000000 0.00000000 0.50000000
        0.25000000 0.75000000 0.50000000
        0.75000000 0.00000000 0.75000000
        0.75000000 0.25000000 0.00000000
        0.75000000 0.50000000 0.25000000
        0.00000000 0.75000000 0.75000000
        0.99767000 0.00000000 0.00000000
        0.00000000 0.25000000 0.25000000
        0.00000000 0.50000000 0.50000000
        0.25000000 0.75000000 0.00000000
        0.25000000 0.00000000 0.25000000
        0.25000000 0.25000000 0.50000000
        0.50000000 0.75000000 0.25000000
        0.50000000 0.00000000 0.50000000
        0.75000000 0.50000000 0.75000000
        0.00000000 0.25000000 0.75000000
        0.00000000 0.50000000 0.00000000
        0.25000000 0.00000000 0.75000000
        0.25000000 0.25000000 0.00000000
        0.25000000 0.50000000 0.25000000
        0.50000000 0.75000000 0.75000000
        0.50000000 0.00000000 0.00000000
        0.50000000 0.25000000 0.25000000
        0.50000000 0.50000000 0.50000000
        0.25000000 0.50000000 0.75000000
        0.50000000 0.25000000 0.75000000
        0.50000000 0.50000000 0.00000000
