   PREC = Accurate
 IBRION = 2
 ISIF = 3
 NSW = 60
  ENCUT = 500
  EDIFF = 1.0e-08
 ISMEAR = 0 
 SIGMA = 0.01
  IALGO = 38
  LREAL = .FALSE.
ADDGRID = .TRUE.
  LWAVE = .FALSE.
 LCHARG = .FALSE.
