Cu                                      
   1.00000000000000     
     4.0371999741000000    0.0000000000000000    0.0000000000000000
     0.0000000000000000    4.0371999741000000    0.0000000000000000
     0.0000000000000000    0.0000000000000000    4.0371999741000000
   4
Direct
  0.0000000000000000  0.0000000000000000  0.0000000000000000
  0.5000000000000000  0.5000000000000000  0.0000000000000000
  0.5000000000000000  0.0000000000000000  0.5000000000000000
  0.0000000000000000  0.5000000000000000  0.5000000000000000
