No title
    1.0
            8.66796081 0.00000000 0.00000000 
            0.00000016 8.66796081 0.00000000 
            0.00000016 0.00000016 8.66796081 
  32
Direct
        0.75000000 0.75000000 0.50000000
        0.75000000 0.75000000 0.00000000
        0.75000000 0.00000000 0.25000000
        0.75000000 0.25000000 0.50000000
        0.00000000 0.75000000 0.25000000
        0.00000000 0.00000000 0.50000000
        0.25000000 0.75000000 0.50000000
        0.75000000 0.00000000 0.75000000
        0.75000000 0.25000000 0.00000000
        0.75000000 0.50000000 0.25000000
        0.00000000 0.75000000 0.75000000
        0.99769300 0.00000000 0.00000000
        0.00000000 0.25000000 0.25000000
        0.00000000 0.50000000 0.50000000
        0.25000000 0.75000000 0.00000000
        0.25000000 0.00000000 0.25000000
        0.25000000 0.25000000 0.50000000
        0.50000000 0.75000000 0.25000000
        0.50000000 0.00000000 0.50000000
        0.75000000 0.50000000 0.75000000
        0.00000000 0.25000000 0.75000000
        0.00000000 0.50000000 0.00000000
        0.25000000 0.00000000 0.75000000
        0.25000000 0.25000000 0.00000000
        0.25000000 0.50000000 0.25000000
        0.50000000 0.75000000 0.75000000
        0.50000000 0.00000000 0.00000000
        0.50000000 0.25000000 0.25000000
        0.50000000 0.50000000 0.50000000
        0.25000000 0.50000000 0.75000000
        0.50000000 0.25000000 0.75000000
        0.50000000 0.50000000 0.00000000
