No title
    1.0
            11.45566306 0.00000000 0.00000000 
            0.00000021 11.45566306 0.00000000 
            0.00000021 0.00000021 11.45566306 
  108
Direct
        0.66666667 0.66666667 0.33333333
        0.66666667 0.83333333 0.50000000
        0.83333333 0.66666667 0.50000000
        0.66666667 0.66666667 0.00000000
        0.66666667 0.83333333 0.16666667
        0.66666667 0.00000000 0.33333333
        0.66666667 0.16666667 0.50000000
        0.83333333 0.66666667 0.16666667
        0.83333333 0.83333333 0.33333333
        0.83333333 0.00000000 0.50000000
        0.00000000 0.66666667 0.33333333
        0.00000000 0.83333333 0.50000000
        0.16666667 0.66666667 0.50000000
        0.66666667 0.66666667 0.66666667
        0.66666667 0.83333333 0.83333333
        0.66666667 0.00000000 0.00000000
        0.66666667 0.16666667 0.16666667
        0.66666667 0.33333333 0.33333333
        0.66666667 0.50000000 0.50000000
        0.83333333 0.66666667 0.83333333
        0.83333333 0.83333333 0.00000000
        0.83333333 0.00000000 0.16666667
        0.83333333 0.16666667 0.33333333
        0.83333333 0.33333333 0.50000000
        0.00000000 0.66666667 0.00000000
        0.00000000 0.83333333 0.16666667
        0.00000000 0.00000000 0.33333333
        0.00000000 0.16666667 0.50000000
        0.16666667 0.66666667 0.16666667
        0.16666667 0.83333333 0.33333333
        0.16666667 0.00000000 0.50000000
        0.33333333 0.66666667 0.33333333
        0.33333333 0.83333333 0.50000000
        0.50000000 0.66666667 0.50000000
        0.66666667 0.00000000 0.66666667
        0.66666667 0.16666667 0.83333333
        0.66666667 0.33333333 0.00000000
        0.66666667 0.50000000 0.16666667
        0.83333333 0.83333333 0.66666667
        0.83333333 0.00000000 0.83333333
        0.83333333 0.16666667 0.00000000
        0.83333333 0.33333333 0.16666667
        0.83333333 0.50000000 0.33333333
        0.00000000 0.66666667 0.66666667
        0.00000000 0.83333333 0.83333333
        0.99825400 0.00000000 0.00000000
        0.00000000 0.16666667 0.16666667
        0.00000000 0.33333333 0.33333333
        0.00000000 0.50000000 0.50000000
        0.16666667 0.66666667 0.83333333
        0.16666667 0.83333333 0.00000000
        0.16666667 0.00000000 0.16666667
        0.16666667 0.16666667 0.33333333
        0.16666667 0.33333333 0.50000000
        0.33333333 0.66666667 0.00000000
        0.33333333 0.83333333 0.16666667
        0.33333333 0.00000000 0.33333333
        0.33333333 0.16666667 0.50000000
        0.50000000 0.66666667 0.16666667
        0.50000000 0.83333333 0.33333333
        0.50000000 0.00000000 0.50000000
        0.66666667 0.33333333 0.66666667
        0.66666667 0.50000000 0.83333333
        0.83333333 0.16666667 0.66666667
        0.83333333 0.33333333 0.83333333
        0.83333333 0.50000000 0.00000000
        0.00000000 0.00000000 0.66666667
        0.00000000 0.16666667 0.83333333
        0.00000000 0.33333333 0.00000000
        0.00000000 0.50000000 0.16666667
        0.16666667 0.83333333 0.66666667
        0.16666667 0.00000000 0.83333333
        0.16666667 0.16666667 0.00000000
        0.16666667 0.33333333 0.16666667
        0.16666667 0.50000000 0.33333333
        0.33333333 0.66666667 0.66666667
        0.33333333 0.83333333 0.83333333
        0.33333333 0.00000000 0.00000000
        0.33333333 0.16666667 0.16666667
        0.33333333 0.33333333 0.33333333
        0.33333333 0.50000000 0.50000000
        0.50000000 0.66666667 0.83333333
        0.50000000 0.83333333 0.00000000
        0.50000000 0.00000000 0.16666667
        0.50000000 0.16666667 0.33333333
        0.50000000 0.33333333 0.50000000
        0.83333333 0.50000000 0.66666667
        0.00000000 0.33333333 0.66666667
        0.00000000 0.50000000 0.83333333
        0.16666667 0.16666667 0.66666667
        0.16666667 0.33333333 0.83333333
        0.16666667 0.50000000 0.00000000
        0.33333333 0.00000000 0.66666667
        0.33333333 0.16666667 0.83333333
        0.33333333 0.33333333 0.00000000
        0.33333333 0.50000000 0.16666667
        0.50000000 0.83333333 0.66666667
        0.50000000 0.00000000 0.83333333
        0.50000000 0.16666667 0.00000000
        0.50000000 0.33333333 0.16666667
        0.50000000 0.50000000 0.33333333
        0.16666667 0.50000000 0.66666667
        0.33333333 0.33333333 0.66666667
        0.33333333 0.50000000 0.83333333
        0.50000000 0.16666667 0.66666667
        0.50000000 0.33333333 0.83333333
        0.50000000 0.50000000 0.00000000
        0.50000000 0.50000000 0.66666667
