Al                                      
   1.04000000000000     
     4.0398548792887974    0.0000000000000000    0.0000000000000000
     0.0000000000000000    4.0398548792887974    0.0000000000000000
     0.0000000000000000    0.0000000000000000    4.0398548792887974
   4
Direct
  0.5000000000000000  0.5000000000000000  0.0000000000000000
  0.5000000000000000  0.0000000000000000  0.5000000000000000
  0.0000000000000000  0.5000000000000000  0.5000000000000000
  0.0000000000000000  0.0000000000000000  0.0000000000000000
 
  0.00000000E+00  0.00000000E+00  0.00000000E+00
  0.00000000E+00  0.00000000E+00  0.00000000E+00
  0.00000000E+00  0.00000000E+00  0.00000000E+00
  0.00000000E+00  0.00000000E+00  0.00000000E+00
