Al                                      
   1.01000000000000     
     4.0373063696728151    0.0000000000000000    0.0000000000000000
     0.0000000000000000    4.0373063696728151    0.0000000000000000
     0.0000000000000000    0.0000000000000000    4.0373063696728151
   4
Direct
  0.5000000000000000  0.5000000000000000  0.0000000000000000
  0.5000000000000000  0.0000000000000000  0.5000000000000000
  0.0000000000000000  0.5000000000000000  0.5000000000000000
  0.0000000000000000  0.0000000000000000  0.0000000000000000
 
  0.00000000E+00  0.00000000E+00  0.00000000E+00
  0.00000000E+00  0.00000000E+00  0.00000000E+00
  0.00000000E+00  0.00000000E+00  0.00000000E+00
  0.00000000E+00  0.00000000E+00  0.00000000E+00
