Cu                                      
   1.00000000000000     
     7.2725950804346349   -0.0000000000000000    0.0000000000000000
    -0.0000000000000000    7.2726965830833219    0.0000000000000000
     0.0000000000000000    0.0000000000000000    7.2726965830833219
  32
Direct
  0.2500558276465979  0.2500000000000000  0.0000000000000000
  0.7500271382682941  0.2500000000000000  0.0000000000000000
  0.2500311651345721  0.7500000000000000 -0.0000000000000000
  0.7500476546038876  0.7500000000000000  0.0000000000000000
  0.2500311651345721  0.2500000000000000  0.5000000000000000
  0.7500476546038876  0.2500000000000000  0.5000000000000000
  0.2500322590875614  0.7500000000000000  0.5000000000000000
  0.7500347007561285  0.7500000000000000  0.5000000000000000
  0.2500396726332398  0.0000000595282177  0.2499999404717823
  0.7500390994308171 -0.0000000545004686  0.2500000545004686
  0.2500396726332398  0.4999999404717823  0.2499999404717823
  0.7500390994308171  0.5000000545004687  0.2500000545004686
  0.2500396726332398  0.0000000595282177  0.7500000595282178
  0.7500390994308171 -0.0000000545004686  0.7499999454995313
  0.2500396726332398  0.4999999404717823  0.7500000595282178
  0.7500390994308171  0.5000000545004687  0.7499999454995313
  0.0000418182052314  0.2500000000000000  0.2499917678560890
  0.5000419440200006  0.2500000000000000  0.2500082656469825
  0.0000351077783220  0.7500000000000000  0.2499964411886781
  0.5000350021171771  0.7500000000000000  0.2500035543462595
  0.0000418182052314  0.2500000000000000  0.7500082321439112
  0.5000419440200006  0.2500000000000000  0.7499917343530175
  0.0000351077783220  0.7500000000000000  0.7500035588113220
  0.5000350021171771  0.7500000000000000  0.7499964456537405
  0.0000418182052314  0.0000082321439110  0.0000000000000000
  0.5000419440200006 -0.0000082656469824 -0.0000000000000000
  0.0000418182052314  0.4999917678560889  0.0000000000000000
  0.5000419440200006  0.5000082656469825 -0.0000000000000000
  0.0000351077783220  0.0000035588113219  0.5000000000000000
  0.5000350021171771 -0.0000035543462595  0.5000000000000000
  0.0000351077783220  0.4999964411886782  0.5000000000000000
  0.5000350021171771  0.5000035543462595  0.5000000000000000
 
  0.00000000E+00  0.00000000E+00  0.00000000E+00
  0.00000000E+00  0.00000000E+00  0.00000000E+00
  0.00000000E+00  0.00000000E+00  0.00000000E+00
  0.00000000E+00  0.00000000E+00  0.00000000E+00
  0.00000000E+00  0.00000000E+00  0.00000000E+00
  0.00000000E+00  0.00000000E+00  0.00000000E+00
  0.00000000E+00  0.00000000E+00  0.00000000E+00
  0.00000000E+00  0.00000000E+00  0.00000000E+00
  0.00000000E+00  0.00000000E+00  0.00000000E+00
  0.00000000E+00  0.00000000E+00  0.00000000E+00
  0.00000000E+00  0.00000000E+00  0.00000000E+00
  0.00000000E+00  0.00000000E+00  0.00000000E+00
  0.00000000E+00  0.00000000E+00  0.00000000E+00
  0.00000000E+00  0.00000000E+00  0.00000000E+00
  0.00000000E+00  0.00000000E+00  0.00000000E+00
  0.00000000E+00  0.00000000E+00  0.00000000E+00
  0.00000000E+00  0.00000000E+00  0.00000000E+00
  0.00000000E+00  0.00000000E+00  0.00000000E+00
  0.00000000E+00  0.00000000E+00  0.00000000E+00
  0.00000000E+00  0.00000000E+00  0.00000000E+00
  0.00000000E+00  0.00000000E+00  0.00000000E+00
  0.00000000E+00  0.00000000E+00  0.00000000E+00
  0.00000000E+00  0.00000000E+00  0.00000000E+00
  0.00000000E+00  0.00000000E+00  0.00000000E+00
  0.00000000E+00  0.00000000E+00  0.00000000E+00
  0.00000000E+00  0.00000000E+00  0.00000000E+00
  0.00000000E+00  0.00000000E+00  0.00000000E+00
  0.00000000E+00  0.00000000E+00  0.00000000E+00
  0.00000000E+00  0.00000000E+00  0.00000000E+00
  0.00000000E+00  0.00000000E+00  0.00000000E+00
  0.00000000E+00  0.00000000E+00  0.00000000E+00
  0.00000000E+00  0.00000000E+00  0.00000000E+00
