# SCF input for VASP
# Note that VASP uses the FIRST occurence of a keyword
SYSTEM = No title

    PREC = Normal
   ENCUT = 229.948
  IBRION = 2
     NSW = 100
    ISIF = 2
    ALGO = Normal (blocked Davidson)
    NELM = 60
  NELMIN = 2
   EDIFF = 1.0e-05
  EDIFFG = -0.02
 VOSKOWN = 1
  NBLOCK = 1
   ISPIN = 1
  INIWAV = 1
  ISTART = 0
  ICHARG = 2
   LWAVE = .TRUE.
  LCHARG = .FALSE.
 ADDGRID = .FALSE.
  ISMEAR = 1
   SIGMA = 0.2
   LREAL = .FALSE.
RWIGS = 1.34
