Au                                      
   1.00000000000000     
     4.1730411705926249   -0.0000000000000000    0.0000000000000000
    -0.0000000000000000    4.1730411705926249   -0.0000000000000000
    -0.0000000000000000    0.0000000000000000    4.1730411705926249
   4
Direct
 -0.0000000000000000 -0.0000000000000000 -0.0000000000000000
  0.5000000000000000  0.5000000000000000  0.0000000000000000
  0.5000000000000000  0.0000000000000000  0.5000000000000000
  0.0000000000000000  0.5000000000000000  0.5000000000000000
 
  0.00000000E+00  0.00000000E+00  0.00000000E+00
  0.00000000E+00  0.00000000E+00  0.00000000E+00
  0.00000000E+00  0.00000000E+00  0.00000000E+00
  0.00000000E+00  0.00000000E+00  0.00000000E+00
