Au                                      
   1.00000000000000     
     4.127600390           0.0000000000000000    0.0000000000000000
     0.0000000000000000    4.127600390           0.0000000000000000
     0.0000000000000000    0.0000000000000000    4.127600390
   4
Direct
  0.0000000000000000  0.0000000000000000  0.0000000000000000
  0.5000000000000000  0.5000000000000000  0.0000000000000000
  0.5000000000000000  0.0000000000000000  0.5000000000000000
  0.0000000000000000  0.5000000000000000  0.5000000000000000
