Cu                                      
   1.00000000000000     
     3.63620679973369    0.0000000000000000    0.0000000000000000
     0.0000000000000000    3.63620679973369    0.0000000000000000
     0.0000000000000000    0.0000000000000000    3.63620679973369
   4
Direct
  0.0000000000000000  0.0000000000000000  0.0000000000000000
  0.5000000000000000  0.5000000000000000  0.0000000000000000
  0.5000000000000000  0.0000000000000000  0.5000000000000000
  0.0000000000000000  0.5000000000000000  0.5000000000000000
