No title
    1.0
            11.13144618 0.00000000 0.00000000 
            0.00000020 11.13144618 0.00000000 
            0.00000020 0.00000020 11.13144618 
  108
Direct
        0.66666667 0.66666667 0.33333333
        0.66666667 0.83333333 0.50000000
        0.83333333 0.66666667 0.50000000
        0.66666667 0.66666667 0.00000000
        0.66666667 0.83333333 0.16666667
        0.66666667 0.00000000 0.33333333
        0.66666667 0.16666667 0.50000000
        0.83333333 0.66666667 0.16666667
        0.83333333 0.83333333 0.33333333
        0.83333333 0.00000000 0.50000000
        0.00000000 0.66666667 0.33333333
        0.00000000 0.83333333 0.50000000
        0.16666667 0.66666667 0.50000000
        0.66666667 0.66666667 0.66666667
        0.66666667 0.83333333 0.83333333
        0.66666667 0.00000000 0.00000000
        0.66666667 0.16666667 0.16666667
        0.66666667 0.33333333 0.33333333
        0.66666667 0.50000000 0.50000000
        0.83333333 0.66666667 0.83333333
        0.83333333 0.83333333 0.00000000
        0.83333333 0.00000000 0.16666667
        0.83333333 0.16666667 0.33333333
        0.83333333 0.33333333 0.50000000
        0.00000000 0.66666667 0.00000000
        0.00000000 0.83333333 0.16666667
        0.00000000 0.00000000 0.33333333
        0.00000000 0.16666667 0.50000000
        0.16666667 0.66666667 0.16666667
        0.16666667 0.83333333 0.33333333
        0.16666667 0.00000000 0.50000000
        0.33333333 0.66666667 0.33333333
        0.33333333 0.83333333 0.50000000
        0.50000000 0.66666667 0.50000000
        0.66666667 0.00000000 0.66666667
        0.66666667 0.16666667 0.83333333
        0.66666667 0.33333333 0.00000000
        0.66666667 0.50000000 0.16666667
        0.83333333 0.83333333 0.66666667
        0.83333333 0.00000000 0.83333333
        0.83333333 0.16666667 0.00000000
        0.83333333 0.33333333 0.16666667
        0.83333333 0.50000000 0.33333333
        0.00000000 0.66666667 0.66666667
        0.00000000 0.83333333 0.83333333
        0.99820300 0.00000000 0.00000000
        0.00000000 0.16666667 0.16666667
        0.00000000 0.33333333 0.33333333
        0.00000000 0.50000000 0.50000000
        0.16666667 0.66666667 0.83333333
        0.16666667 0.83333333 0.00000000
        0.16666667 0.00000000 0.16666667
        0.16666667 0.16666667 0.33333333
        0.16666667 0.33333333 0.50000000
        0.33333333 0.66666667 0.00000000
        0.33333333 0.83333333 0.16666667
        0.33333333 0.00000000 0.33333333
        0.33333333 0.16666667 0.50000000
        0.50000000 0.66666667 0.16666667
        0.50000000 0.83333333 0.33333333
        0.50000000 0.00000000 0.50000000
        0.66666667 0.33333333 0.66666667
        0.66666667 0.50000000 0.83333333
        0.83333333 0.16666667 0.66666667
        0.83333333 0.33333333 0.83333333
        0.83333333 0.50000000 0.00000000
        0.00000000 0.00000000 0.66666667
        0.00000000 0.16666667 0.83333333
        0.00000000 0.33333333 0.00000000
        0.00000000 0.50000000 0.16666667
        0.16666667 0.83333333 0.66666667
        0.16666667 0.00000000 0.83333333
        0.16666667 0.16666667 0.00000000
        0.16666667 0.33333333 0.16666667
        0.16666667 0.50000000 0.33333333
        0.33333333 0.66666667 0.66666667
        0.33333333 0.83333333 0.83333333
        0.33333333 0.00000000 0.00000000
        0.33333333 0.16666667 0.16666667
        0.33333333 0.33333333 0.33333333
        0.33333333 0.50000000 0.50000000
        0.50000000 0.66666667 0.83333333
        0.50000000 0.83333333 0.00000000
        0.50000000 0.00000000 0.16666667
        0.50000000 0.16666667 0.33333333
        0.50000000 0.33333333 0.50000000
        0.83333333 0.50000000 0.66666667
        0.00000000 0.33333333 0.66666667
        0.00000000 0.50000000 0.83333333
        0.16666667 0.16666667 0.66666667
        0.16666667 0.33333333 0.83333333
        0.16666667 0.50000000 0.00000000
        0.33333333 0.00000000 0.66666667
        0.33333333 0.16666667 0.83333333
        0.33333333 0.33333333 0.00000000
        0.33333333 0.50000000 0.16666667
        0.50000000 0.83333333 0.66666667
        0.50000000 0.00000000 0.83333333
        0.50000000 0.16666667 0.00000000
        0.50000000 0.33333333 0.16666667
        0.50000000 0.50000000 0.33333333
        0.16666667 0.50000000 0.66666667
        0.33333333 0.33333333 0.66666667
        0.33333333 0.50000000 0.83333333
        0.50000000 0.16666667 0.66666667
        0.50000000 0.33333333 0.83333333
        0.50000000 0.50000000 0.00000000
        0.50000000 0.50000000 0.66666667
