Ag                                      
   1.00000000000000     
     4.102307100           0.0000000000000000    0.0000000000000000
     0.0000000000000000    4.102307100           0.0000000000000000
     0.0000000000000000    0.0000000000000000    4.102307100
   4
Direct
  0.0000000000000000  0.0000000000000000  0.0000000000000000
  0.5000000000000000  0.5000000000000000  0.0000000000000000
  0.5000000000000000  0.0000000000000000  0.5000000000000000
  0.0000000000000000  0.5000000000000000  0.5000000000000000
