Cu                                      
   1.00000000000000     
     7.2719609542456283   -0.0000016389246399    0.0000000000000000
    -0.0000016436979668    7.2728182120020257    0.0000000000000000
     0.0000000000000000    0.0000000000000000    7.2729293315735708
  32
Direct
  0.2500419844453985  0.2500000006065309  0.0000000000000000
  0.7500367283249517  0.2500000006422713  0.0000000000000000
  0.2500376256667651  0.7500000000358474  0.0000000000000000
  0.7500397765238375  0.7499999995276976  0.0000000000000000
  0.2500376239423139  0.2500000002618976  0.5000000000000000
  0.7500397798312961  0.2500000006057610  0.5000000000000000
  0.2500374324090515  0.7499999996408147  0.5000000000000000
  0.7500385204140002  0.7499999996717205  0.5000000000000000
  0.2500387075784967  0.0000000085539225  0.2499999887031317
  0.7500386931944736  0.9999999888579876  0.2500000087637253
  0.2500387076627686  0.4999999915043253  0.2499999890658544
  0.7500386925046716  0.5000000111012839  0.2500000091075734
  0.2500387075784967  0.0000000085539225  0.7500000112968683
  0.7500386931944736  0.9999999888579876  0.7499999912362748
  0.2500387076627686  0.4999999915043253  0.7500000109341456
  0.7500386925046716  0.5000000111012839  0.7499999908924265
  0.0000390309609500  0.2499999998664988  0.2499986819157476
  0.5000390471125318  0.2499999999373168  0.2500013112298381
  0.0000383540908814  0.7500000002801532  0.2499997373305143
  0.5000383348861623  0.7499999997463738  0.2500002616076976
  0.0000390309609500  0.2499999998664988  0.7500013180842525
  0.5000390471125318  0.2499999999373168  0.7499986887701620
  0.0000383540908814  0.7500000002801532  0.7500002626694858
  0.5000383348861623  0.7499999997463738  0.7499997383923025
  0.0000390305185080  0.0000013132354690  0.0000000000000000
  0.5000390478290868  0.9999986866231492  0.0000000000000000
  0.0000390299064509  0.4999986868690033  0.0000000000000000
  0.5000390475436015  0.5000013131105953  0.0000000000000000
  0.0000383547029612  0.0000002626185473  0.5000000000000000
  0.5000383350068996  0.9999997364921984  0.5000000000000000
  0.0000383540381866  0.4999997371490437  0.5000000000000000
  0.5000383348894856  0.5000002632137167  0.5000000000000000
 
  0.00000000E+00  0.00000000E+00  0.00000000E+00
  0.00000000E+00  0.00000000E+00  0.00000000E+00
  0.00000000E+00  0.00000000E+00  0.00000000E+00
  0.00000000E+00  0.00000000E+00  0.00000000E+00
  0.00000000E+00  0.00000000E+00  0.00000000E+00
  0.00000000E+00  0.00000000E+00  0.00000000E+00
  0.00000000E+00  0.00000000E+00  0.00000000E+00
  0.00000000E+00  0.00000000E+00  0.00000000E+00
  0.00000000E+00  0.00000000E+00  0.00000000E+00
  0.00000000E+00  0.00000000E+00  0.00000000E+00
  0.00000000E+00  0.00000000E+00  0.00000000E+00
  0.00000000E+00  0.00000000E+00  0.00000000E+00
  0.00000000E+00  0.00000000E+00  0.00000000E+00
  0.00000000E+00  0.00000000E+00  0.00000000E+00
  0.00000000E+00  0.00000000E+00  0.00000000E+00
  0.00000000E+00  0.00000000E+00  0.00000000E+00
  0.00000000E+00  0.00000000E+00  0.00000000E+00
  0.00000000E+00  0.00000000E+00  0.00000000E+00
  0.00000000E+00  0.00000000E+00  0.00000000E+00
  0.00000000E+00  0.00000000E+00  0.00000000E+00
  0.00000000E+00  0.00000000E+00  0.00000000E+00
  0.00000000E+00  0.00000000E+00  0.00000000E+00
  0.00000000E+00  0.00000000E+00  0.00000000E+00
  0.00000000E+00  0.00000000E+00  0.00000000E+00
  0.00000000E+00  0.00000000E+00  0.00000000E+00
  0.00000000E+00  0.00000000E+00  0.00000000E+00
  0.00000000E+00  0.00000000E+00  0.00000000E+00
  0.00000000E+00  0.00000000E+00  0.00000000E+00
  0.00000000E+00  0.00000000E+00  0.00000000E+00
  0.00000000E+00  0.00000000E+00  0.00000000E+00
  0.00000000E+00  0.00000000E+00  0.00000000E+00
  0.00000000E+00  0.00000000E+00  0.00000000E+00
