# SCF input for VASP
# Note that VASP uses the FIRST occurence of a keyword
SYSTEM = No title

    PREC = Accurate
   ENCUT = 500
  IBRION = -1
     NSW = 0
    ISIF = 2
    ALGO = Very Fast (RMM-DIIS)
    NELM = 60
  NELMIN = 2
   EDIFF = 1.0e-05
  EDIFFG = -0.02
 VOSKOWN = 1
  NBLOCK = 1
   ISPIN = 1
  INIWAV = 1
  ISTART = 1
  ICHARG = 0
   LWAVE = .FALSE.
  LCHARG = .FALSE.
 ADDGRID = .TRUE.
  ISMEAR = 1
   SIGMA = 0.2
   LREAL = .FALSE.
RWIGS = 1.17
