Cu                                      
  0.970000000000000     
     3.6364158117330523    0.0000000000000000    0.0000000000000000
     0.0000000000000000    3.6364158117330523    0.0000000000000000
     0.0000000000000000    0.0000000000000000    3.6364158117330523
   4
Direct
  0.0000000000000000  0.0000000000000000  0.0000000000000000
  0.5000000000000000  0.5000000000000000  0.0000000000000000
  0.5000000000000000  0.0000000000000000  0.5000000000000000
  0.0000000000000000  0.5000000000000000  0.5000000000000000
 
  0.00000000E+00  0.00000000E+00  0.00000000E+00
  0.00000000E+00  0.00000000E+00  0.00000000E+00
  0.00000000E+00  0.00000000E+00  0.00000000E+00
  0.00000000E+00  0.00000000E+00  0.00000000E+00
