Cu                                      
   1.00000000000000     
     7.2724135994673800   -0.0000014600603747    0.0000000000000000
    -0.0000017584705223    7.2726131092130606    0.0000000000000000
     0.0000000000000000    0.0000000000000000    7.2726294769188780
  32
Direct
  0.2500495016979433  0.2500000065288102  0.0000000000000000
  0.7500324712956701  0.2499999937746512  0.0000000000000000
  0.2500351770235187  0.7499999919150250  0.0000000000000000
  0.7500424088576134  0.7500000072844516  0.0000000000000000
  0.2500351570888408  0.2500000037820790  0.5000000000000000
  0.7500424285415911  0.2499999902671061  0.5000000000000000
  0.2500338853379487  0.7499999961322490  0.5000000000000000
  0.7500376977063907  0.7500000101490637  0.5000000000000000
  0.2500388793741217  0.0000000288378738  0.2499999822251885
  0.7500386825790913  0.9999999561313800  0.2500000214739878
  0.2500388675153971  0.4999999710512762  0.2499999787939005
  0.7500386932588596  0.5000000439172245  0.2500000178100339
  0.2500388793741217  0.0000000288378738  0.7500000177748115
  0.7500386825790913  0.9999999561313800  0.7499999785260122
  0.2500388675153971  0.4999999710512762  0.7500000212060995
  0.7500386932588596  0.5000000439172245  0.7499999821899661
  0.0000400414760883  0.2500000044948534  0.2499956153659462
  0.5000400926275028  0.2499999929738432  0.2500043945506749
  0.0000373534254863  0.7499999952772448  0.2499991409818169
  0.5000373047458924  0.7500000077583291  0.2500008594056054
  0.0000400414760883  0.2500000044948534  0.7500043846340538
  0.5000400926275028  0.2499999929738432  0.7499956054493251
  0.0000373534254863  0.7499999952772448  0.7500008590181831
  0.5000373047458924  0.7500000077583291  0.7499991405943947
  0.0000400179187052  0.0000043873891732  0.0000000000000000
  0.5000401180670188  0.9999955871455249  0.0000000000000000
  0.0000400313564767  0.4999956129221435  0.0000000000000000
  0.5000401034884913  0.5000044122595203  0.0000000000000000
  0.0000373633229243  0.0000008602172053  0.5000000000000000
  0.5000372938405087  0.9999991235401511  0.5000000000000000
  0.0000373769186620  0.4999991390646553  0.5000000000000000
  0.5000372795074776  0.5000008767441403  0.5000000000000000
 
  0.00000000E+00  0.00000000E+00  0.00000000E+00
  0.00000000E+00  0.00000000E+00  0.00000000E+00
  0.00000000E+00  0.00000000E+00  0.00000000E+00
  0.00000000E+00  0.00000000E+00  0.00000000E+00
  0.00000000E+00  0.00000000E+00  0.00000000E+00
  0.00000000E+00  0.00000000E+00  0.00000000E+00
  0.00000000E+00  0.00000000E+00  0.00000000E+00
  0.00000000E+00  0.00000000E+00  0.00000000E+00
  0.00000000E+00  0.00000000E+00  0.00000000E+00
  0.00000000E+00  0.00000000E+00  0.00000000E+00
  0.00000000E+00  0.00000000E+00  0.00000000E+00
  0.00000000E+00  0.00000000E+00  0.00000000E+00
  0.00000000E+00  0.00000000E+00  0.00000000E+00
  0.00000000E+00  0.00000000E+00  0.00000000E+00
  0.00000000E+00  0.00000000E+00  0.00000000E+00
  0.00000000E+00  0.00000000E+00  0.00000000E+00
  0.00000000E+00  0.00000000E+00  0.00000000E+00
  0.00000000E+00  0.00000000E+00  0.00000000E+00
  0.00000000E+00  0.00000000E+00  0.00000000E+00
  0.00000000E+00  0.00000000E+00  0.00000000E+00
  0.00000000E+00  0.00000000E+00  0.00000000E+00
  0.00000000E+00  0.00000000E+00  0.00000000E+00
  0.00000000E+00  0.00000000E+00  0.00000000E+00
  0.00000000E+00  0.00000000E+00  0.00000000E+00
  0.00000000E+00  0.00000000E+00  0.00000000E+00
  0.00000000E+00  0.00000000E+00  0.00000000E+00
  0.00000000E+00  0.00000000E+00  0.00000000E+00
  0.00000000E+00  0.00000000E+00  0.00000000E+00
  0.00000000E+00  0.00000000E+00  0.00000000E+00
  0.00000000E+00  0.00000000E+00  0.00000000E+00
  0.00000000E+00  0.00000000E+00  0.00000000E+00
  0.00000000E+00  0.00000000E+00  0.00000000E+00
