Cu                                      
   1.00000000000000     
     7.2723562063631144   -0.0000013679744968    0.0000000000000000
    -0.0000017564430888    7.2725375679898123    0.0000000000000000
     0.0000000000000000    0.0000000000000000    7.2725510151556811
  32
Direct
  0.2500502977459098  0.2500000018379597  0.0000000000000000
  0.7500319960079272  0.2499999930436308  0.0000000000000000
  0.2500348897017031  0.7499999974320973  0.0000000000000000
  0.7500427296757584  0.7500000075684161  0.0000000000000000
  0.2500348758902058  0.2499999993103453  0.5000000000000000
  0.7500427435917009  0.2499999902642203  0.5000000000000000
  0.2500334305353294  0.7500000004158648  0.5000000000000000
  0.7500375966385249  0.7500000103648751  0.5000000000000000
  0.2500389029260894  0.0000000310336398  0.2499999762092384
  0.7500386893254967  0.9999999556976839  0.2500000244283250
  0.2500388945090173  0.4999999689697279  0.2499999736303601
  0.7500386970776534  0.5000000439422608  0.2500000216368349
  0.2500389029260894  0.0000000310336398  0.7500000237907615
  0.7500386893254967  0.9999999556976839  0.7499999755716750
  0.2500388945090173  0.4999999689697279  0.7500000263696399
  0.7500386970776534  0.5000000439422608  0.7499999783631650
  0.0000401695433765  0.2500000003202279  0.2499952443097595
  0.5000402324868779  0.2499999918661530  0.2500047638805381
  0.0000372267583510  0.7499999997504486  0.2499990753020939
  0.5000371747048139  0.7500000086856735  0.2500009243299250
  0.0000401695433765  0.2500000003202279  0.7500047556902405
  0.5000402324868779  0.2499999918661530  0.7499952361194618
  0.0000372267583510  0.7499999997504486  0.7500009246979061
  0.5000371747048139  0.7500000086856735  0.7499990756700751
  0.0000401517411349  0.0000047557425916  0.0000000000000000
  0.5000402522533161  0.9999952205542828  0.0000000000000000
  0.0000401606690566  0.4999952447075393  0.0000000000000000
  0.5000402421974057  0.5000047787924567  0.0000000000000000
  0.0000372355027431  0.0000009229117742  0.5000000000000000
  0.5000371650375180 -0.0000009387430857  0.5000000000000000
  0.0000372449091053  0.4999990764165222  0.5000000000000000
  0.5000371552139690  0.5000009388488719  0.5000000000000000
 
  0.00000000E+00  0.00000000E+00  0.00000000E+00
  0.00000000E+00  0.00000000E+00  0.00000000E+00
  0.00000000E+00  0.00000000E+00  0.00000000E+00
  0.00000000E+00  0.00000000E+00  0.00000000E+00
  0.00000000E+00  0.00000000E+00  0.00000000E+00
  0.00000000E+00  0.00000000E+00  0.00000000E+00
  0.00000000E+00  0.00000000E+00  0.00000000E+00
  0.00000000E+00  0.00000000E+00  0.00000000E+00
  0.00000000E+00  0.00000000E+00  0.00000000E+00
  0.00000000E+00  0.00000000E+00  0.00000000E+00
  0.00000000E+00  0.00000000E+00  0.00000000E+00
  0.00000000E+00  0.00000000E+00  0.00000000E+00
  0.00000000E+00  0.00000000E+00  0.00000000E+00
  0.00000000E+00  0.00000000E+00  0.00000000E+00
  0.00000000E+00  0.00000000E+00  0.00000000E+00
  0.00000000E+00  0.00000000E+00  0.00000000E+00
  0.00000000E+00  0.00000000E+00  0.00000000E+00
  0.00000000E+00  0.00000000E+00  0.00000000E+00
  0.00000000E+00  0.00000000E+00  0.00000000E+00
  0.00000000E+00  0.00000000E+00  0.00000000E+00
  0.00000000E+00  0.00000000E+00  0.00000000E+00
  0.00000000E+00  0.00000000E+00  0.00000000E+00
  0.00000000E+00  0.00000000E+00  0.00000000E+00
  0.00000000E+00  0.00000000E+00  0.00000000E+00
  0.00000000E+00  0.00000000E+00  0.00000000E+00
  0.00000000E+00  0.00000000E+00  0.00000000E+00
  0.00000000E+00  0.00000000E+00  0.00000000E+00
  0.00000000E+00  0.00000000E+00  0.00000000E+00
  0.00000000E+00  0.00000000E+00  0.00000000E+00
  0.00000000E+00  0.00000000E+00  0.00000000E+00
  0.00000000E+00  0.00000000E+00  0.00000000E+00
  0.00000000E+00  0.00000000E+00  0.00000000E+00
