No title
    1.0
            8.36870648 0.00000000 0.00000000 
            0.00000015 8.36870648 0.00000000 
            0.00000015 0.00000015 8.36870648 
  32
Direct
        0.75000000 0.75000000 0.50000000
        0.75000000 0.75000000 0.00000000
        0.75000000 0.00000000 0.25000000
        0.75000000 0.25000000 0.50000000
        0.00000000 0.75000000 0.25000000
        0.00000000 0.00000000 0.50000000
        0.25000000 0.75000000 0.50000000
        0.75000000 0.00000000 0.75000000
        0.75000000 0.25000000 0.00000000
        0.75000000 0.50000000 0.25000000
        0.00000000 0.75000000 0.75000000
        0.99761000 0.00000000 0.00000000
        0.00000000 0.25000000 0.25000000
        0.00000000 0.50000000 0.50000000
        0.25000000 0.75000000 0.00000000
        0.25000000 0.00000000 0.25000000
        0.25000000 0.25000000 0.50000000
        0.50000000 0.75000000 0.25000000
        0.50000000 0.00000000 0.50000000
        0.75000000 0.50000000 0.75000000
        0.00000000 0.25000000 0.75000000
        0.00000000 0.50000000 0.00000000
        0.25000000 0.00000000 0.75000000
        0.25000000 0.25000000 0.00000000
        0.25000000 0.50000000 0.25000000
        0.50000000 0.75000000 0.75000000
        0.50000000 0.00000000 0.00000000
        0.50000000 0.25000000 0.25000000
        0.50000000 0.50000000 0.50000000
        0.25000000 0.50000000 0.75000000
        0.50000000 0.25000000 0.75000000
        0.50000000 0.50000000 0.00000000
