Cu 
   1.0
     7.3                   0.0000000000000000    0.0000000000000000
     0.0000000000000000    7.3                   0.0000000000000000
     0.0000000000000000    0.0000000000000000    7.3
  32
Direct
  0.2512381419746554  0.2500000000000000  0.0000000000000000
  0.7499999999999999  0.2500000000000000  0.0000000000000000
  0.2500000000000000  0.7499999999999999  0.0000000000000000
  0.7499999999999999  0.7499999999999999  0.0000000000000000
  0.2500000000000000  0.2500000000000000  0.5000000000000000
  0.7499999999999999  0.2500000000000000  0.5000000000000000
  0.2500000000000000  0.7499999999999999  0.5000000000000000
  0.7499999999999999  0.7499999999999999  0.5000000000000000
  0.2500000000000000  0.0000000000000000  0.2500000000000000
  0.7499999999999999  0.0000000000000000  0.2500000000000000
  0.2500000000000000  0.5000000000000000  0.2500000000000000
  0.7499999999999999  0.5000000000000000  0.2500000000000000
  0.2500000000000000  0.0000000000000000  0.7499999999999999
  0.7499999999999999  0.0000000000000000  0.7499999999999999
  0.2500000000000000  0.5000000000000000  0.7499999999999999
  0.7499999999999999  0.5000000000000000  0.7499999999999999
  0.0000000000000000  0.2500000000000000  0.2500000000000000
  0.5000000000000000  0.2500000000000000  0.2500000000000000
  0.0000000000000000  0.7499999999999999  0.2500000000000000
  0.5000000000000000  0.7499999999999999  0.2500000000000000
  0.0000000000000000  0.2500000000000000  0.7499999999999999
  0.5000000000000000  0.2500000000000000  0.7499999999999999
  0.0000000000000000  0.7499999999999999  0.7499999999999999
  0.5000000000000000  0.7499999999999999  0.7499999999999999
  0.0000000000000000  0.0000000000000000  0.0000000000000000
  0.5000000000000000  0.0000000000000000  0.0000000000000000
  0.0000000000000000  0.5000000000000000  0.0000000000000000
  0.5000000000000000  0.5000000000000000  0.0000000000000000
  0.0000000000000000  0.0000000000000000  0.5000000000000000
  0.5000000000000000  0.0000000000000000  0.5000000000000000
  0.0000000000000000  0.5000000000000000  0.5000000000000000
  0.5000000000000000  0.5000000000000000  0.5000000000000000
