No title
    1.0
            8.91561684 0.00000000 0.00000000 
            0.00000016 8.91561684 0.00000000 
            0.00000016 0.00000016 8.91561684 
  32
Direct
        0.75000000 0.75000000 0.50000000
        0.75000000 0.75000000 0.00000000
        0.75000000 0.00000000 0.25000000
        0.75000000 0.25000000 0.50000000
        0.00000000 0.75000000 0.25000000
        0.00000000 0.00000000 0.50000000
        0.25000000 0.75000000 0.50000000
        0.75000000 0.00000000 0.75000000
        0.75000000 0.25000000 0.00000000
        0.75000000 0.50000000 0.25000000
        0.00000000 0.75000000 0.75000000
        0.99775700 0.00000000 0.00000000
        0.00000000 0.25000000 0.25000000
        0.00000000 0.50000000 0.50000000
        0.25000000 0.75000000 0.00000000
        0.25000000 0.00000000 0.25000000
        0.25000000 0.25000000 0.50000000
        0.50000000 0.75000000 0.25000000
        0.50000000 0.00000000 0.50000000
        0.75000000 0.50000000 0.75000000
        0.00000000 0.25000000 0.75000000
        0.00000000 0.50000000 0.00000000
        0.25000000 0.00000000 0.75000000
        0.25000000 0.25000000 0.00000000
        0.25000000 0.50000000 0.25000000
        0.50000000 0.75000000 0.75000000
        0.50000000 0.00000000 0.00000000
        0.50000000 0.25000000 0.25000000
        0.50000000 0.50000000 0.50000000
        0.25000000 0.50000000 0.75000000
        0.50000000 0.25000000 0.75000000
        0.50000000 0.50000000 0.00000000
