Automatic mesh
0
Gamma
36 36 36
0. 0. 0.
