Ag                                      
   1.08000000000000     
     4.1637691262739089    0.0000000000000000    0.0000000000000000
     0.0000000000000000    4.1637691262739089    0.0000000000000000
     0.0000000000000000    0.0000000000000000    4.1637691262739089
   4
Direct
  0.0000000000000000  0.0000000000000000  0.0000000000000000
  0.5000000000000000  0.5000000000000000  0.0000000000000000
  0.5000000000000000  0.0000000000000000  0.5000000000000000
  0.0000000000000000  0.5000000000000000  0.5000000000000000
 
  0.00000000E+00  0.00000000E+00  0.00000000E+00
  0.00000000E+00  0.00000000E+00  0.00000000E+00
  0.00000000E+00  0.00000000E+00  0.00000000E+00
  0.00000000E+00  0.00000000E+00  0.00000000E+00
